000 -99 -99 -99 000 000 000 000 001 001 001 002 002 001 -99 -99 000 000 000 000 -99 000 000 000 000 000 -99 -99 000 001 003
000 -99 000 000 000 000 000 000 000 001 000 000 000 001 -99 -99 -99 -99 -99 -99 -99 000 000 000 000 000 -99 -99 -99 -99 000
000 000 000 000 000 000 000 000 000 000 000 000 000 -99 -99 -99 -99 -99 -99 -99 -99 -99 000 000 000 000 -99 -99 -99 -99 -99
000 000 000 000 000 000 000 000 -99 000 000 -99 -99 -99 -99 -99 -99 -99 -99 -99 000 -99 000 000 000 -99 -99 -99 -99 -99 -99
000 000 000 000 000 000 000 000 -99 -99 -99 -99 -99 -99 -99 -99 -99 -99 -99 -99 000 000 000 000 000 000 -99 -99 -99 -99 -99
000 000 000 000 000 000 000 000 000 -99 -99 -99 -99 -99 -99 -99 -99 000 -99 -99 000 000 000 000 000 000 -99 -99 -99 -99 -99
000 000 000 000 000 000 000 000 000 000 -99 -99 -99 -99 -99 -99 000 000 -99 -99 000 000 000 000 000 000 -99 -99 -99 -99 -99
000 000 000 000 000 000 000 000 000 000 -99 -99 -99 -99 -99 -99 000 000 000 -99 000 000 000 000 000 -99 -99 -99 -99 000 -99
000 000 000 000 000 000 000 -99 000 000 000 -99 -99 -99 -99 -99 000 000 -99 -99 000 -99 000 000 000 -99 000 000 -99 000 -99
000 000 000 000 000 000 000 000 000 000 000 000 -99 -99 -99 -99 -99 000 000 000 000 000 -99 -99 000 -99 000 000 000 000 -99
000 000 000 000 000 000 000 000 000 000 000 000 000 -99 000 000 -99 000 000 000 000 000 -99 -99 -99 -99 000 000 000 000 000
000 000 000 000 000 000 000 000 000 000 000 000 000 -99 000 000 -99 000 000 000 000 000 -99 -99 -99 -99 -99 000 -99 000 000
000 000 000 000 000 000 000 000 000 000 000 000 000 -99 -99 000 000 000 000 000 000 000 -99 -99 000 -99 -99 -99 -99 000 000
000 000 000 000 000 000 000 -99 -99 -99 000 000 000 -99 -99 000 000 000 000 000 -99 000 -99 -99 000 -99 -99 -99 000 -99 000
000 000 000 000 000 000 000 -99 -99 -99 -99 000 000 000 -99 -99 000 000 000 000 -99 000 -99 000 000 000 000 000 000 -99 000
000 000 000 000 000 000 000 000 -99 -99 -99 -99 000 000 -99 -99 -99 000 000 -99 -99 000 -99 000 000 000 000 000 000 000 -99
000 000 000 000 000 000 000 000 000 -99 -99 -99 000 000 000 -99 000 000 000 000 -99 -99 000 -99 -99 000 000 000 000 000 000
000 000 000 000 000 000 000 000 000 000 000 -99 -99 000 000 -99 000 000 000 -99 -99 000 000 -99 -99 -99 000 000 000 000 000
000 000 000 000 000 000 000 000 000 000 000 -99 -99 000 000 -99 000 000 000 -99 000 000 000 -99 -99 -99 -99 -99 -99 000 -99
000 000 000 000 000 000 000 000 000 000 000 000 -99 000 000 -99 000 000 -99 -99 000 000 000 -99 -99 -99 -99 -99 -99 -99 -99
000 000 000 000 000 000 000 000 000 000 000 000 000 -99 000 000 000 000 000 -99 000 000 000 -99 -99 -99 -99 -99 -99 -99 -99
000 000 000 000 000 000 000 000 000 000 000 000 000 000 000 000 000 000 000 000 -99 000 000 -99 -99 -99 -99 -99 -99 -99 -99
000 000 000 000 000 000 000 000 000 000 000 000 000 000 000 000 000 000 000 000 000 000 000 -99 -99 -99 -99 -99 -99 -99 -99
000 000 000 000 000 000 000 000 000 000 000 000 000 000 000 000 000 000 000 000 000 000 000 -99 -99 -99 -99 -99 -99 -99 -99
000 000 000 000 000 000 000 000 000 000 000 000 000 000 000 000 000 000 000 000 000 000 000 -99 -99 -99 -99 -99 -99 -99 -99
000 000 000 000 000 000 000 000 000 000 000 000 000 000 000 000 000 000 000 000 000 000 000 -99 -99 -99 -99 -99 -99 -99 000
000 000 000 000 000 000 000 000 000 000 000 000 000 000 000 000 000 000 000 000 000 000 000 -99 -99 -99 -99 -99 -99 -99 000
000 000 000 000 000 000 000 000 000 000 000 000 000 000 000 000 000 000 000 000 000 000 000 -99 -99 -99 -99 -99 -99 -99 000
000 000 000 000 000 000 000 000 000 000 000 000 000 000 000 000 000 000 000 000 000 000 -99 -99 -99 -99 -99 -99 -99 -99 000
000 000 000 000 000 000 000 000 000 000 000 000 000 000 000 000 000 000 000 000 000 000 -99 -99 -99 -99 -99 -99 -99 -99 -99
000 000 000 000 000 000 000 000 000 000 000 000 000 000 000 000 000 000 000 000 -99 000 -99 -99 -99 000 -99 -99 -99 -99 000
000 000 000 000 000 000 000 000 000 000 000 000 000 000 000 000 000 000 000 000 000 000 -99 -99 000 000 -99 -99 000 -99 000
000 000 000 000 000 000 000 000 000 000 000 000 000 000 000 000 000 000 000 000 -99 000 000 000 000 000 -99 000 000 000 000
000 000 000 000 000 000 000 000 000 000 000 000 000 000 000 000 000 000 000 000 000 000 000 000 000 000 000 000 000 000 000
000 000 000 000 000 000 000 000 000 000 000 000 000 000 000 000 000 000 000 000 000 000 000 000 000 000 000 000 001 000 001
000 000 000 000 000 000 000 000 000 000 001 001 000 000 000 000 000 000 000 000 000 000 000 000 000 000 000 000 001 002 001
000 000 000 000 000 000 000 000 000 000 001 001 000 000 000 000 000 000 000 000 000 000 000 000 000 000 000 001 002 003 002
000 000 000 000 000 000 000 000 000 000 001 002 000 000 000 000 001 001 000 000 000 000 000 000 000 000 000 002 002 002 002
-99 -99 000 000 000 000 000 000 000 000 001 001 001 001 000 000 000 001 000 000 000 000 000 000 000 000 001 002 002 002 002
-99 000 000 000 000 000 000 000 000 000 000 000 001 001 001 001 001 001 001 000 000 000 000 000 000 000 000 001 001 001 002
-99 000 000 000 000 000 000 000 000 000 000 000 000 001 002 001 001 001 000 000 000 000 000 000 000 001 000 001 001 001 002
000 000 -99 000 000 000 000 000 000 000 000 001 000 000 001 001 002 001 000 000 000 000 000 000 000 000 000 000 000 001 002
000 000 -99 -99 000 000 000 000 000 000 000 000 000 000 000 000 001 001 000 000 000 000 000 000 001 001 000 000 001 000 001
000 -99 -99 -99 000 000 000 000 000 000 000 000 000 000 000 000 001 001 000 000 000 000 000 000 001 001 000 001 001 000 001
000 000 -99 -99 000 000 000 000 000 000 000 000 000 000 000 000 001 000 000 000 000 000 000 001 001 001 001 001 001 001 001
000 -99 -99 -99 -99 000 000 000 000 000 000 000 000 000 000 000 000 000 000 000 000 000 000 001 002 002 001 001 -99 001 000
000 -99 -99 -99 -99 -99 000 000 000 000 000 000 000 000 000 000 000 000 000 000 000 000 000 001 001 001 001 001 001 001 000
-99 -99 -99 -99 -99 -99 000 000 000 000 000 000 000 000 000 000 001 001 001 001 001 001 000 001 001 001 001 001 001 001 000
-99 -99 -99 -99 -99 -99 -99 000 000 000 000 000 000 000 000 001 002 002 001 001 005 006 002 000 000 001 001 001 001 000 000
000 -99 -99 -99 -99 -99 -99 000 000 000 000 000 000 001 002 002 003 003 002 003 009 005 002 000 000 000 001 001 000 000 001
000 -99 -99 -99 -99 -99 -99 000 000 000 000 000 001 002 002 004 004 003 004 005 008 003 001 000 000 000 000 000 000 000 001
-99 -99 -99 -99 -99 -99 -99 000 000 000 000 000 000 001 001 003 001 003 005 005 004 001 000 000 000 000 000 000 000 000 001
-99 -99 -99 -99 000 -99 -99 -99 -99 000 000 000 000 000 000 002 001 005 007 005 001 000 000 000 000 000 000 000 000 000 000
-99 -99 -99 -99 000 000 -99 -99 -99 -99 -99 000 000 -99 -99 001 001 003 004 002 000 000 -99 000 000 000 000 000 000 000 000
-99 -99 -99 -99 -99 -99 -99 -99 -99 -99 -99 -99 -99 -99 -99 001 000 001 001 000 000 000 -99 -99 -99 -99 -99 -99 -99 -99 -99
